chronos/benchmarks/bsort100/bsort100.out
sim-profile: SimpleScalar/PISA Tool Set version 3.0 of August, 2003.
Copyright (c) 1994-2003 by Todd M. Austin, Ph.D. and SimpleScalar, LLC.
All Rights Reserved. This version of SimpleScalar is licensed for academic
non-commercial use.  No portion of this work may be used by any commercial
entity, or for any commercial purpose, without the prior written permission
of SimpleScalar, LLC (info@simplescalar.com).

sim: command line: /ubc/ece/home/ugrads/s/s2z6/chronos/simplesim-3.0/sim-profile -pcstat sim_num_insn bsort100 

sim: simulation started @ Thu Jan 27 14:06:34 2011, options follow:

sim-profile: This simulator implements a functional simulator with
profiling support.  Run with the `-h' flag to see profiling options
available.

# -config                     # load configuration from a file
# -dumpconfig                 # dump configuration to a file
# -h                    false # print help message    
# -v                    false # verbose operation     
# -d                    false # enable debug message  
# -i                    false # start in Dlite debugger
-seed                       1 # random number generator seed (0 for timer seed)
# -q                    false # initialize and terminate immediately
# -chkpt               <null> # restore EIO trace execution from <fname>
# -redir:sim           <null> # redirect simulator output to file (non-interactive only)
# -redir:prog          <null> # redirect simulated program output to file
-nice                       0 # simulator scheduling priority
-max:inst                   0 # maximum number of inst's to execute
-all                    false # enable all profile options
-iclass                 false # enable instruction class profiling
-iprof                  false # enable instruction profiling
-brprof                 false # enable branch instruction profiling
-amprof                 false # enable address mode profiling
-segprof                false # enable load/store address segment profiling
-tsymprof               false # enable text symbol profiling
-taddrprof              false # enable text address profiling
-dsymprof               false # enable data symbol profiling
-internal               false # include compiler-internal symbols during symbol profiling
# -pcstat        sim_num_insn # profile stat(s) against text addr's (mult uses ok)

sim: ** starting functional simulation **

sim: ** simulation statistics **
sim_num_insn                7356305 # total number of instructions executed
sim_num_refs                2099751 # total number of loads and stores executed
sim_elapsed_time                  1 # total simulation time in seconds
sim_inst_rate          7356305.0000 # simulation speed (in insts/sec)

sim_num_insn_by_pc     # total number of instructions executed (by text address)
sim_num_insn_by_pc.count = 852
sim_num_insn_by_pc.total = 7356304
sim_num_insn_by_pc.imin = 0x400140
sim_num_insn_by_pc.imax = 0x405700
sim_num_insn_by_pc.average = 8634.1596
sim_num_insn_by_pc.std_dev = 66641.9965
sim_num_insn_by_pc.overflows = 0
# pdf == prob dist fn, cdf == cumulative dist fn
#          index      count    pdf 
sim_num_insn_by_pc.start_dist
0x400140 1 0.00
0x400148 1 0.00
0x400150 1 0.00
0x400158 1 0.00
0x400160 1 0.00
0x400168 1 0.00
0x400170 1 0.00
0x400178 1 0.00
0x400180 1 0.00
0x400188 1 0.00
0x400190 1 0.00
0x400198 1 0.00
0x4001a0 1 0.00
0x4001a8 1 0.00
0x4001b0 1 0.00
0x4001b8 1 0.00
0x4001c0 1 0.00
0x4001c8 1 0.00
0x4001d0 1 0.00
0x4001d8 1 0.00
0x4001e0 1 0.00
0x4001f0 1 0.00
0x4001f8 1 0.00
0x400200 1 0.00
0x400208 1 0.00
0x400210 1 0.00
0x400218 1024 0.01
0x400220 1024 0.01
0x400228 1024 0.01
0x400230 1024 0.01
0x400238 1024 0.01
0x400240 1024 0.01
0x400248 1 0.00
0x400250 1 0.00
0x400258 1 0.00
0x400260 1 0.00
0x400268 1 0.00
0x400270 1023 0.01
0x400278 1023 0.01
0x400280 1023 0.01
0x400288 1023 0.01
0x400290 1023 0.01
0x400298 524798 7.13
0x4002a0 524798 7.13
0x4002a8 523776 7.12
0x4002b0 523776 7.12
0x4002b8 523776 7.12
0x4002c0 523776 7.12
0x4002c8 523776 7.12
0x4002d0 523776 7.12
0x4002d8 523776 7.12
0x4002e0 523776 7.12
0x4002e8 523776 7.12
0x4002f0 523776 7.12
0x4002f8 523776 7.12
0x400300 523776 7.12
0x400308 1023 0.01
0x400310 1023 0.01
0x400318 1023 0.01
0x400320 1023 0.01
0x400328 1 0.00
0x400330 1 0.00
0x400340 1 0.00
0x400348 1 0.00
0x400350 1 0.00
0x400358 1 0.00
0x400360 1 0.00
0x400368 1 0.00
0x400370 1 0.00
0x400378 1 0.00
0x400380 1 0.00
0x400388 1 0.00
0x400390 1 0.00
0x400398 1 0.00
0x4003a0 1 0.00
0x4003a8 1 0.00
0x4003b0 1 0.00
0x4003b8 1 0.00
0x4003c0 1 0.00
0x4003c8 1 0.00
0x4003d0 1 0.00
0x4003d8 1 0.00
0x4003e0 1 0.00
0x4003e8 1 0.00
0x4003f0 1 0.00
0x4004a0 1 0.00
0x4004a8 1 0.00
0x4004b0 1 0.00
0x4004b8 1 0.00
0x4004c0 1 0.00
0x400510 1 0.00
0x400518 1 0.00
0x400520 1 0.00
0x400528 1 0.00
0x400530 1 0.00
0x400538 1 0.00
0x400540 1 0.00
0x400548 1 0.00
0x400550 1 0.00
0x400558 1 0.00
0x400560 1 0.00
0x400568 1 0.00
0x400578 1 0.00
0x400580 1 0.00
0x400588 1 0.00
0x400590 1 0.00
0x400598 1 0.00
0x4007b0 1 0.00
0x4007b8 1 0.00
0x4007c0 1 0.00
0x4007c8 1 0.00
0x4007d0 1 0.00
0x4007d8 1 0.00
0x4007e0 1 0.00
0x400800 1 0.00
0x400820 1 0.00
0x400828 1 0.00
0x400830 1 0.00
0x400838 1 0.00
0x400840 1 0.00
0x400848 1 0.00
0x400868 1 0.00
0x400870 1 0.00
0x400878 1 0.00
0x400880 1 0.00
0x4008a0 1 0.00
0x4008a8 1 0.00
0x4008b0 1 0.00
0x4008b8 1 0.00
0x4008c0 1 0.00
0x4008c8 1 0.00
0x4008d0 1 0.00
0x4008d8 1 0.00
0x4008e0 1 0.00
0x4008e8 1 0.00
0x4008f0 1 0.00
0x4008f8 1 0.00
0x400900 1 0.00
0x400908 1 0.00
0x400910 1 0.00
0x400918 1 0.00
0x400920 1 0.00
0x400928 1 0.00
0x400930 1 0.00
0x400938 1 0.00
0x400940 1 0.00
0x400948 1 0.00
0x400950 1 0.00
0x400958 1 0.00
0x400968 1 0.00
0x400970 1 0.00
0x400978 1 0.00
0x400980 1 0.00
0x400988 1 0.00
0x400990 1 0.00
0x400998 1 0.00
0x4009a0 1 0.00
0x4009a8 1 0.00
0x4009b0 1 0.00
0x4009b8 1 0.00
0x4009c0 1 0.00
0x4009c8 1 0.00
0x4009d0 1 0.00
0x4009d8 1 0.00
0x4009e0 1 0.00
0x4009e8 1 0.00
0x4009f0 1 0.00
0x4009f8 1 0.00
0x400a00 1 0.00
0x400a08 1 0.00
0x400a10 1 0.00
0x400a18 1 0.00
0x400a20 1 0.00
0x400a28 1 0.00
0x400a38 1 0.00
0x400a40 1 0.00
0x400a48 1 0.00
0x400a50 1 0.00
0x400a58 1 0.00
0x400a60 1 0.00
0x400a68 1 0.00
0x400a70 1 0.00
0x400a78 1 0.00
0x400a80 1 0.00
0x400a88 1 0.00
0x400a90 1 0.00
0x400a98 1 0.00
0x400aa0 1 0.00
0x400aa8 1 0.00
0x400ab0 1 0.00
0x400ab8 1 0.00
0x400ae8 1 0.00
0x400af0 1 0.00
0x400b00 1 0.00
0x400b08 1 0.00
0x400b20 1 0.00
0x400b28 1 0.00
0x400b30 1 0.00
0x400b38 1 0.00
0x400b48 1 0.00
0x400b50 1 0.00
0x400b58 1 0.00
0x400b60 1 0.00
0x400b68 1 0.00
0x400df0 1 0.00
0x400df8 1 0.00
0x400e00 1 0.00
0x400e08 1 0.00
0x400e18 1 0.00
0x400e20 1 0.00
0x400e28 1 0.00
0x400e30 1 0.00
0x400e38 1 0.00
0x400e40 1 0.00
0x400e48 1 0.00
0x400e50 1 0.00
0x400e58 1 0.00
0x400e60 1 0.00
0x400e68 1 0.00
0x400e70 1 0.00
0x400e78 1 0.00
0x400e80 1 0.00
0x400e88 1 0.00
0x400e90 1 0.00
0x400e98 1 0.00
0x400ea0 1 0.00
0x400ea8 1 0.00
0x400eb0 1 0.00
0x400eb8 1 0.00
0x400ec0 1 0.00
0x400ed8 1 0.00
0x400ee0 1 0.00
0x400ee8 1 0.00
0x400ef0 1 0.00
0x400ef8 1 0.00
0x400f00 1 0.00
0x400f10 1 0.00
0x400f18 1 0.00
0x4012b0 1 0.00
0x4012b8 1 0.00
0x4012c0 1 0.00
0x4012c8 1 0.00
0x4012d0 1 0.00
0x4012d8 1 0.00
0x4012e0 1 0.00
0x4012e8 1 0.00
0x4012f0 1 0.00
0x4012f8 1 0.00
0x401300 1 0.00
0x401308 1 0.00
0x401310 1 0.00
0x401318 1 0.00
0x401320 1 0.00
0x401328 1 0.00
0x401330 1 0.00
0x401338 1 0.00
0x401340 1 0.00
0x401348 1 0.00
0x401350 1 0.00
0x401358 1 0.00
0x401360 1 0.00
0x401368 1 0.00
0x401370 1 0.00
0x401378 1 0.00
0x401460 1 0.00
0x401468 1 0.00
0x401470 1 0.00
0x401478 1 0.00
0x401480 1 0.00
0x401488 1 0.00
0x401490 1 0.00
0x4014a0 1 0.00
0x4014a8 1 0.00
0x4014b0 1 0.00
0x4014b8 1 0.00
0x4014c0 1 0.00
0x4014c8 1 0.00
0x4014d0 1 0.00
0x4014d8 1 0.00
0x4014e0 1 0.00
0x4014e8 1 0.00
0x4014f0 1 0.00
0x4014f8 1 0.00
0x401500 1 0.00
0x401508 1 0.00
0x401510 1 0.00
0x401518 1 0.00
0x401520 1 0.00
0x4017b8 1 0.00
0x4017c0 1 0.00
0x4017c8 1 0.00
0x4017d0 1 0.00
0x4017d8 1 0.00
0x4017e0 1 0.00
0x4017e8 1 0.00
0x4017f0 1 0.00
0x401800 4 0.00
0x401808 4 0.00
0x401810 4 0.00
0x401818 4 0.00
0x401820 4 0.00
0x401828 4 0.00
0x401830 4 0.00
0x401838 1 0.00
0x401840 1 0.00
0x401848 1 0.00
0x401850 1 0.00
0x401858 1 0.00
0x401860 1 0.00
0x401868 3 0.00
0x401870 3 0.00
0x401888 3 0.00
0x401890 3 0.00
0x401898 3 0.00
0x4018a0 3 0.00
0x4018a8 3 0.00
0x4018b0 3 0.00
0x4018b8 1 0.00
0x4018c0 1 0.00
0x4018c8 3 0.00
0x4018d0 3 0.00
0x4018d8 3 0.00
0x4018e0 3 0.00
0x4018f8 3 0.00
0x401900 3 0.00
0x401908 3 0.00
0x401910 3 0.00
0x401938 3 0.00
0x401940 3 0.00
0x401948 3 0.00
0x401950 2 0.00
0x401958 2 0.00
0x401960 2 0.00
0x401968 2 0.00
0x401970 2 0.00
0x401988 3 0.00
0x401990 3 0.00
0x401998 1 0.00
0x4019a0 1 0.00
0x4019a8 1 0.00
0x4019b0 1 0.00
0x4019b8 3 0.00
0x4019c0 3 0.00
0x4019c8 2 0.00
0x4019d0 2 0.00
0x4019d8 2 0.00
0x4019e0 2 0.00
0x4019e8 1 0.00
0x4019f0 1 0.00
0x4019f8 1 0.00
0x401a00 1 0.00
0x401a08 1 0.00
0x401a28 1 0.00
0x401a30 3 0.00
0x401a38 3 0.00
0x401a40 3 0.00
0x401a48 4 0.00
0x401a50 4 0.00
0x401a58 4 0.00
0x401a60 4 0.00
0x401a68 4 0.00
0x401a70 4 0.00
0x401a80 1 0.00
0x401a88 1 0.00
0x401a90 1 0.00
0x401a98 1 0.00
0x401aa0 1 0.00
0x401aa8 1 0.00
0x401ab0 1 0.00
0x401ab8 1 0.00
0x401af0 1 0.00
0x401af8 1 0.00
0x401b00 1 0.00
0x401b08 1 0.00
0x401b10 1 0.00
0x401b18 1 0.00
0x401b20 3 0.00
0x401b28 3 0.00
0x401b30 3 0.00
0x401b38 3 0.00
0x401b40 3 0.00
0x401b48 3 0.00
0x401b50 3 0.00
0x401b58 3 0.00
0x401b60 2 0.00
0x401b68 2 0.00
0x401b70 2 0.00
0x401b78 2 0.00
0x401b80 2 0.00
0x401b88 2 0.00
0x401b90 1 0.00
0x401b98 1 0.00
0x401ba0 1 0.00
0x401ba8 1 0.00
0x401c28 1 0.00
0x401c30 1 0.00
0x401c38 1 0.00
0x401c40 5 0.00
0x401c48 5 0.00
0x401c50 5 0.00
0x401c58 5 0.00
0x401c60 5 0.00
0x401c68 5 0.00
0x401c70 5 0.00
0x401c78 5 0.00
0x401c80 5 0.00
0x401c88 5 0.00
0x401c90 4 0.00
0x401c98 4 0.00
0x401ca0 4 0.00
0x401ca8 4 0.00
0x401cb0 4 0.00
0x401cb8 4 0.00
0x401cc0 4 0.00
0x401cc8 4 0.00
0x401cd0 4 0.00
0x401cd8 4 0.00
0x401d08 4 0.00
0x401d10 4 0.00
0x401d18 4 0.00
0x401d20 390 0.01
0x401d28 390 0.01
0x401d30 390 0.01
0x401d38 390 0.01
0x401d40 390 0.01
0x401d48 390 0.01
0x401d50 390 0.01
0x401d58 390 0.01
0x401d60 390 0.01
0x401d68 390 0.01
0x401d70 390 0.01
0x401d78 390 0.01
0x401d80 4 0.00
0x401d88 4 0.00
0x401d90 4 0.00
0x401d98 12 0.00
0x401da0 12 0.00
0x401da8 12 0.00
0x401db0 12 0.00
0x401db8 4 0.00
0x401dc0 4 0.00
0x401de8 4 0.00
0x401df0 4 0.00
0x401fc0 1 0.00
0x401fc8 1 0.00
0x401fd0 1 0.00
0x401fd8 1 0.00
0x401fe0 1 0.00
0x401fe8 1 0.00
0x401ff0 1 0.00
0x401ff8 1 0.00
0x402000 1 0.00
0x402008 1 0.00
0x402018 1 0.00
0x402020 1 0.00
0x402028 1 0.00
0x402030 1 0.00
0x402038 1 0.00
0x402040 1 0.00
0x402048 1 0.00
0x402050 1 0.00
0x402058 1 0.00
0x402060 1 0.00
0x402068 1 0.00
0x402070 1 0.00
0x402078 1 0.00
0x402080 1 0.00
0x402088 1 0.00
0x402090 1 0.00
0x402098 1 0.00
0x4020a0 1 0.00
0x4020a8 1 0.00
0x4020b0 1 0.00
0x4020b8 1 0.00
0x4020c0 1 0.00
0x4020c8 1 0.00
0x4020d0 1 0.00
0x4020d8 1 0.00
0x402128 1 0.00
0x402130 1 0.00
0x402138 1 0.00
0x402140 1 0.00
0x402148 1 0.00
0x402150 1 0.00
0x402158 1 0.00
0x402170 1 0.00
0x402178 1 0.00
0x402180 1 0.00
0x402188 1 0.00
0x402190 1 0.00
0x402198 1 0.00
0x4021a0 1 0.00
0x4021a8 1 0.00
0x4021b0 1 0.00
0x4021b8 1 0.00
0x4021c0 1 0.00
0x4021c8 1 0.00
0x4021d0 1 0.00
0x402220 1 0.00
0x402228 1 0.00
0x402230 1 0.00
0x402238 1 0.00
0x402240 1 0.00
0x402248 1 0.00
0x402250 1 0.00
0x402258 1 0.00
0x402260 1 0.00
0x402268 1 0.00
0x402270 1 0.00
0x402278 1 0.00
0x402280 1 0.00
0x402288 1 0.00
0x402290 1 0.00
0x402298 1 0.00
0x4022a0 1 0.00
0x4022a8 1 0.00
0x4022b0 1 0.00
0x4022b8 1 0.00
0x4022c0 1 0.00
0x4022c8 1 0.00
0x4022d0 1 0.00
0x4022d8 1 0.00
0x4022e0 1 0.00
0x4022e8 1 0.00
0x4022f0 1 0.00
0x4022f8 1 0.00
0x4023b0 1 0.00
0x4023b8 1 0.00
0x4023c0 1 0.00
0x4023c8 1 0.00
0x4023d0 1 0.00
0x4023d8 1 0.00
0x4023e0 1 0.00
0x4023e8 1 0.00
0x4023f0 1 0.00
0x4023f8 1 0.00
0x402400 1 0.00
0x402408 1 0.00
0x402410 1 0.00
0x402418 1 0.00
0x402420 1 0.00
0x402428 1 0.00
0x402430 1 0.00
0x402438 1 0.00
0x402440 1 0.00
0x402448 1 0.00
0x402450 1 0.00
0x402458 1 0.00
0x402460 1 0.00
0x402468 1 0.00
0x402470 1 0.00
0x402478 1 0.00
0x402480 1 0.00
0x402488 1 0.00
0x402490 1 0.00
0x402498 1 0.00
0x4024a0 1 0.00
0x4024a8 1 0.00
0x4024b0 1 0.00
0x4024b8 1 0.00
0x4024c0 1 0.00
0x4024c8 1 0.00
0x4024d0 1 0.00
0x4024d8 1 0.00
0x4024e0 1 0.00
0x4024e8 1 0.00
0x4024f0 1 0.00
0x4024f8 1 0.00
0x402500 1 0.00
0x402508 1 0.00
0x402510 1 0.00
0x402518 1 0.00
0x402520 1 0.00
0x402528 1 0.00
0x402838 1 0.00
0x402840 1 0.00
0x402848 1 0.00
0x402850 1 0.00
0x402858 1 0.00
0x402860 1 0.00
0x402868 1 0.00
0x402870 1 0.00
0x402878 1 0.00
0x402880 1 0.00
0x402888 1 0.00
0x402890 1 0.00
0x4028b8 1 0.00
0x4028c0 1 0.00
0x4028f0 1 0.00
0x4028f8 1 0.00
0x402900 1 0.00
0x402908 1 0.00
0x402d38 2 0.00
0x402d40 2 0.00
0x402d48 2 0.00
0x402d50 2 0.00
0x402d58 2 0.00
0x402d60 2 0.00
0x402d68 2 0.00
0x402d70 2 0.00
0x402d78 2 0.00
0x402d80 2 0.00
0x402d88 2 0.00
0x402d90 2 0.00
0x402d98 2 0.00
0x402da0 2 0.00
0x402da8 2 0.00
0x402db0 2 0.00
0x402db8 2 0.00
0x402dc0 2 0.00
0x402dc8 2 0.00
0x402dd0 2 0.00
0x402dd8 2 0.00
0x402de0 2 0.00
0x402de8 2 0.00
0x402df0 2 0.00
0x402df8 2 0.00
0x402e00 2 0.00
0x402e08 2 0.00
0x402e10 2 0.00
0x402fc8 2 0.00
0x402fd0 2 0.00
0x402fd8 1 0.00
0x402fe0 1 0.00
0x402fe8 1 0.00
0x402ff0 1 0.00
0x402ff8 1 0.00
0x403000 1 0.00
0x403008 1 0.00
0x403070 2 0.00
0x403078 2 0.00
0x403080 2 0.00
0x403088 2 0.00
0x4030c0 2 0.00
0x4030c8 2 0.00
0x4030d0 2 0.00
0x4030d8 2 0.00
0x4030e0 2 0.00
0x4030e8 2 0.00
0x4030f0 2 0.00
0x4030f8 2 0.00
0x403100 2 0.00
0x403108 2 0.00
0x403110 2 0.00
0x403410 2 0.00
0x403418 2 0.00
0x403420 2 0.00
0x403428 2 0.00
0x403430 2 0.00
0x403438 2 0.00
0x403440 2 0.00
0x403448 2 0.00
0x403450 2 0.00
0x403468 2 0.00
0x403470 2 0.00
0x403478 2 0.00
0x403480 2 0.00
0x403488 2 0.00
0x403490 2 0.00
0x403498 2 0.00
0x4034a0 2 0.00
0x4034a8 2 0.00
0x4034b0 2 0.00
0x4034b8 2 0.00
0x403950 2 0.00
0x403958 2 0.00
0x403960 2 0.00
0x403968 2 0.00
0x403970 2 0.00
0x403978 2 0.00
0x403980 2 0.00
0x403988 2 0.00
0x403990 2 0.00
0x403998 2 0.00
0x4039a0 2 0.00
0x4039a8 2 0.00
0x4039b0 2 0.00
0x4039b8 2 0.00
0x4039c0 2 0.00
0x4039d8 2 0.00
0x4039e0 2 0.00
0x4039e8 2 0.00
0x4039f0 2 0.00
0x4039f8 2 0.00
0x403a00 2 0.00
0x403a08 2 0.00
0x403a30 2 0.00
0x403a38 2 0.00
0x403a40 2 0.00
0x403a48 2 0.00
0x403a50 2 0.00
0x403a88 2 0.00
0x403a90 2 0.00
0x403a98 2 0.00
0x403aa0 2 0.00
0x403aa8 2 0.00
0x403ab0 2 0.00
0x403ab8 2 0.00
0x403ac0 2 0.00
0x403ac8 2 0.00
0x403ad0 2 0.00
0x403ad8 2 0.00
0x403ae0 2 0.00
0x403ae8 2 0.00
0x403af0 2 0.00
0x403af8 2 0.00
0x403b00 2 0.00
0x403b08 2 0.00
0x403b10 2 0.00
0x403b18 2 0.00
0x403b20 2 0.00
0x403b28 2 0.00
0x403b30 2 0.00
0x403b38 2 0.00
0x403b40 2 0.00
0x403b48 2 0.00
0x403b50 2 0.00
0x403b58 2 0.00
0x403b60 2 0.00
0x403b68 2 0.00
0x403b70 2 0.00
0x403b78 1 0.00
0x403b80 1 0.00
0x403b98 1 0.00
0x403ba0 1 0.00
0x403ba8 1 0.00
0x403bb0 1 0.00
0x403bb8 1 0.00
0x403bc0 1 0.00
0x403bc8 1 0.00
0x403c00 1 0.00
0x403c08 1 0.00
0x403c10 1 0.00
0x403c38 2 0.00
0x403c40 2 0.00
0x403c48 2 0.00
0x403c50 2 0.00
0x403c58 2 0.00
0x403c60 2 0.00
0x403c68 2 0.00
0x403c70 2 0.00
0x403c78 2 0.00
0x403ca8 2 0.00
0x403d70 2 0.00
0x403d78 2 0.00
0x403d80 2 0.00
0x403da8 2 0.00
0x403db0 2 0.00
0x403dc0 2 0.00
0x403dc8 2 0.00
0x403dd0 2 0.00
0x403dd8 2 0.00
0x403de0 2 0.00
0x403de8 2 0.00
0x403e18 2 0.00
0x403e20 2 0.00
0x403e28 2 0.00
0x403e30 2 0.00
0x403e48 2 0.00
0x403e50 2 0.00
0x403e58 2 0.00
0x403e60 2 0.00
0x403e68 2 0.00
0x403e70 2 0.00
0x403e78 2 0.00
0x403e80 2 0.00
0x404418 3 0.00
0x404420 3 0.00
0x404428 3 0.00
0x404430 3 0.00
0x404438 3 0.00
0x404440 3 0.00
0x404448 3 0.00
0x404450 3 0.00
0x404458 3 0.00
0x404460 3 0.00
0x404468 3 0.00
0x404470 3 0.00
0x404478 3 0.00
0x404480 3 0.00
0x404488 3 0.00
0x404630 2 0.00
0x404638 2 0.00
0x404640 2 0.00
0x404648 2 0.00
0x404650 2 0.00
0x404658 2 0.00
0x404ad0 5 0.00
0x404ad8 5 0.00
0x404ae0 5 0.00
0x404ae8 5 0.00
0x404af0 1 0.00
0x404af8 1 0.00
0x404b00 4 0.00
0x404b08 4 0.00
0x404b10 4 0.00
0x404b18 4 0.00
0x404b20 4 0.00
0x404b28 4 0.00
0x404b30 3 0.00
0x404b38 5 0.00
0x404b40 5 0.00
0x404b48 5 0.00
0x404b50 5 0.00
0x4053b0 2 0.00
0x4053b8 2 0.00
0x4053c0 2 0.00
0x4053c8 2 0.00
0x4053d0 2 0.00
0x4053d8 2 0.00
0x4053e0 2 0.00
0x4053e8 2 0.00
0x4053f0 2 0.00
0x4053f8 2 0.00
0x405400 2 0.00
0x405408 1 0.00
0x405410 1 0.00
0x405418 1 0.00
0x405420 1 0.00
0x405428 1 0.00
0x405430 1 0.00
0x405438 1 0.00
0x405440 1 0.00
0x405468 1 0.00
0x405470 1 0.00
0x4054b0 1 0.00
0x4054b8 1 0.00
0x4054c0 2 0.00
0x4054c8 2 0.00
0x4054d0 2 0.00
0x4054d8 2 0.00
0x4054e0 2 0.00
0x4055c0 2 0.00
0x4055c8 2 0.00
0x4055d0 2 0.00
0x4055d8 2 0.00
0x4055e0 2 0.00
0x405670 4 0.00
0x405678 4 0.00
0x405680 4 0.00
0x405690 4 0.00
0x405698 4 0.00
0x4056a0 4 0.00
0x4056a8 3 0.00
0x4056b0 3 0.00
0x4056b8 3 0.00
0x4056c0 1 0.00
0x4056e0 1 0.00
0x4056e8 1 0.00
0x4056f0 1 0.00
0x4056f8 1 0.00
0x405700 1 0.00
sim_num_insn_by_pc.end_dist

ld_text_base             0x00400000 # program text (code) segment base
ld_text_size                  22592 # program text (code) size in bytes
ld_data_base             0x10000000 # program initialized data segment base
ld_data_size                   5168 # program init'ed `.data' and uninit'ed `.bss' size in bytes
ld_stack_base            0x7fffc000 # program stack segment base (highest address in stack)
ld_stack_size                 16384 # program initial stack size
ld_prog_entry            0x00400140 # program entry point (initial PC)
ld_environ_base          0x7fff8000 # program environment base address address
ld_target_big_endian              0 # target executable endian-ness, non-zero if big endian
mem.page_count                   13 # total number of pages allocated
mem.page_mem                    52k # total size of memory pages allocated
mem.ptab_misses                  13 # total first level page table misses
mem.ptab_accesses          33764076 # total page table accesses
mem.ptab_miss_rate           0.0000 # first level page table miss rate

+--------------------------------------------------------------+
| effective code range:         [0, fffffff8]                  |
| effective bpred count:        0                              |
| effective sim cycles:         0                              |
| effective bpred misses:       0                              |
| effective icache misses:      0                              |
+--------------------------------------------------------------+

